************************************************************************
file with basedata            : mm29_.bas
initial value random generator: 339155955
************************************************************************
projects                      :  1
jobs (incl. supersource/sink ):  12
horizon                       :  83
RESOURCES
  - renewable                 :  2   R
  - nonrenewable              :  2   N
  - doubly constrained        :  0   D
************************************************************************
PROJECT INFORMATION:
pronr.  #jobs rel.date duedate tardcost  MPM-Time
    1     10      0       16        6       16
************************************************************************
PRECEDENCE RELATIONS:
jobnr.    #modes  #successors   successors
   0        1          3           1   2   3
   1        3          3           4   5   8
   2        3          3           6   8  10
   3        3          2           7   8
   4        3          1           9
   5        3          1           6
   6        3          1           7
   7        3          1           9
   8        3          1          11
   9        3          1          11
  10        3          1          11
  11        1          0        
************************************************************************
REQUESTS/DURATIONS:
jobnr. mode duration  R 1  R 2  R 3  R 4  E(W 1)  E(W 2)  E(W 3)
------------------------------------------------------------------------
  0      1     0       0    0    0    0     0       0       0
  1      1     3       7    0    8    9    21      24      27
  2      1     2       7    0   10    8    14      20      16
  3      1     4      10    0   10    6    40      40      24
  4      1     2       6    0    9    7    12      18      14
  5      1     8       4    0    7    7    32      56      56
  6      1     2       4    0   10    5     8      20      10
  7      1     1       9    0    5    8     9       5       8
  8      1     5       4    0    4   10    20      20      50
  9      1     2       0    5   10    5    10      20      10
 10      1     1       0    3    5    7     3       5       7
 11      1     0       0    0    0    0     0       0       0
************************************************************************
RESOURCEAVAILABILITIES:
  R 1  R 2  R 3
   42   51   52
************************************************************************
RESOURCE LIMITS:
jobnr.  l(R 1)  u(R 1)  l(R 2)  u(R 2)  l(R 3)  u(R 3)
------------------------------------------------------------------------
  0        0       0       0       0       0       0
  1        4       7       4       8       5       9
  2        4       7       5      10       4       8
  3        5      10       5      10       3       6
  4        3       6       5       9       4       7
  5        2       4       4       7       4       7
  6        2       4       5      10       3       5
  7        5       9       3       5       4       8
  8        2       4       2       4       5      10
  9        3       5       5      10       3       5
 10        2       3       3       5       4       7
 11        0       0       0       0       0       0
************************************************************************
SCENARIOS:
------------------------------------------------------------------------
RESOURCE k = 1
s = 1: (0, 33, 18, 29, 12, 27, 13, 10, 31, 8, 4, 0)
s = 2: (0, 17, 11, 51, 12, 27, 6, 6, 14, 8, 5, 0)
s = 3: (0, 30, 17, 55, 16, 45, 13, 7, 28, 9, 4, 0)
s = 4: (0, 30, 20, 39, 9, 36, 6, 10, 28, 13, 3, 0)
s = 5: (0, 30, 20, 35, 10, 52, 8, 11, 25, 11, 4, 0)
s = 6: (0, 15, 10, 31, 10, 34, 6, 13, 23, 10, 3, 0)
s = 7: (0, 27, 10, 50, 18, 35, 7, 9, 17, 12, 3, 0)
s = 8: (0, 13, 26, 46, 15, 26, 6, 7, 28, 10, 2, 0)
s = 9: (0, 20, 11, 52, 21, 43, 15, 8, 23, 11, 4, 0)
s = 10: (0, 25, 14, 64, 11, 36, 8, 8, 18, 9, 3, 0)
s = 11: (0, 29, 11, 63, 13, 31, 8, 12, 22, 11, 3, 0)
s = 12: (0, 21, 16, 40, 8, 25, 8, 10, 23, 8, 5, 0)
s = 13: (0, 30, 20, 59, 17, 19, 11, 8, 23, 15, 5, 0)
s = 14: (0, 19, 12, 29, 11, 45, 9, 9, 20, 12, 4, 0)
s = 15: (0, 15, 11, 45, 13, 38, 7, 6, 21, 7, 3, 0)
s = 16: (0, 22, 9, 56, 10, 32, 7, 10, 18, 11, 3, 0)
s = 17: (0, 16, 13, 38, 11, 29, 8, 11, 24, 10, 3, 0)
s = 18: (0, 18, 21, 40, 18, 34, 6, 12, 26, 9, 3, 0)
s = 19: (0, 20, 20, 28, 13, 41, 7, 9, 18, 15, 3, 0)
s = 20: (0, 21, 18, 43, 19, 23, 9, 12, 17, 9, 4, 0)
s = 21: (0, 22, 17, 31, 9, 24, 7, 10, 19, 8, 4, 0)
s = 22: (0, 20, 14, 30, 14, 25, 10, 11, 32, 6, 3, 0)
s = 23: (0, 24, 17, 36, 13, 35, 12, 9, 14, 9, 3, 0)
s = 24: (0, 32, 16, 33, 10, 30, 8, 8, 13, 15, 5, 0)
s = 25: (0, 30, 15, 29, 13, 35, 6, 6, 11, 15, 2, 0)
s = 26: (0, 23, 18, 59, 9, 37, 9, 11, 16, 11, 3, 0)
s = 27: (0, 20, 9, 62, 23, 29, 7, 10, 34, 8, 4, 0)
s = 28: (0, 21, 16, 36, 12, 51, 7, 11, 26, 13, 5, 0)
s = 29: (0, 26, 19, 34, 11, 27, 9, 6, 17, 15, 6, 0)
s = 30: (0, 32, 12, 49, 10, 28, 12, 8, 18, 10, 2, 0)
s = 31: (0, 22, 22, 36, 7, 24, 8, 8, 14, 11, 5, 0)
s = 32: (0, 23, 12, 45, 20, 29, 7, 8, 24, 7, 4, 0)
s = 33: (0, 22, 16, 26, 7, 41, 9, 9, 20, 7, 5, 0)
s = 34: (0, 22, 15, 40, 22, 31, 5, 7, 16, 6, 3, 0)
s = 35: (0, 30, 18, 33, 12, 46, 10, 8, 12, 11, 2, 0)
s = 36: (0, 29, 11, 42, 13, 34, 9, 10, 29, 13, 3, 0)
s = 37: (0, 17, 19, 53, 12, 29, 9, 6, 31, 7, 4, 0)
s = 38: (0, 29, 12, 51, 14, 26, 10, 7, 27, 6, 3, 0)
s = 39: (0, 15, 10, 39, 10, 35, 10, 11, 18, 6, 4, 0)
s = 40: (0, 26, 11, 43, 11, 25, 8, 6, 16, 8, 4, 0)
s = 41: (0, 26, 15, 48, 11, 26, 7, 9, 19, 16, 4, 0)
s = 42: (0, 20, 11, 54, 12, 37, 8, 10, 22, 8, 2, 0)
s = 43: (0, 25, 13, 34, 9, 27, 11, 13, 27, 15, 4, 0)
s = 44: (0, 16, 9, 62, 17, 23, 5, 10, 28, 12, 4, 0)
s = 45: (0, 13, 13, 24, 15, 51, 8, 9, 16, 12, 2, 0)
s = 46: (0, 29, 14, 39, 10, 36, 11, 10, 32, 10, 3, 0)
s = 47: (0, 21, 11, 43, 8, 40, 7, 9, 19, 12, 2, 0)
s = 48: (0, 18, 13, 34, 10, 33, 11, 7, 24, 10, 3, 0)
s = 49: (0, 15, 9, 73, 8, 29, 6, 9, 26, 8, 5, 0)
s = 50: (0, 29, 10, 49, 19, 33, 7, 13, 19, 12, 2, 0)
s = 51: (0, 21, 9, 33, 16, 23, 6, 12, 20, 15, 3, 0)
s = 52: (0, 21, 9, 26, 15, 29, 7, 7, 27, 12, 2, 0)
s = 53: (0, 26, 15, 68, 14, 41, 7, 14, 30, 14, 4, 0)
s = 54: (0, 24, 20, 35, 15, 21, 13, 11, 15, 11, 4, 0)
s = 55: (0, 28, 14, 54, 14, 26, 9, 7, 16, 7, 3, 0)
s = 56: (0, 26, 12, 49, 11, 37, 10, 12, 17, 11, 3, 0)
s = 57: (0, 22, 17, 34, 16, 42, 6, 7, 27, 14, 3, 0)
s = 58: (0, 29, 19, 35, 7, 29, 9, 6, 19, 7, 6, 0)
s = 59: (0, 11, 13, 54, 13, 25, 5, 7, 30, 12, 5, 0)
s = 60: (0, 22, 8, 51, 11, 60, 11, 10, 20, 11, 3, 0)
s = 61: (0, 25, 21, 40, 10, 39, 6, 7, 18, 12, 3, 0)
s = 62: (0, 17, 10, 31, 11, 34, 7, 7, 26, 13, 2, 0)
s = 63: (0, 30, 14, 35, 8, 20, 9, 8, 19, 8, 3, 0)
s = 64: (0, 21, 21, 53, 17, 34, 8, 16, 27, 12, 2, 0)
s = 65: (0, 18, 11, 31, 11, 48, 10, 8, 26, 12, 3, 0)
s = 66: (0, 22, 12, 31, 13, 28, 7, 9, 21, 12, 6, 0)
s = 67: (0, 27, 15, 49, 14, 36, 6, 9, 28, 10, 3, 0)
s = 68: (0, 21, 16, 45, 11, 43, 12, 6, 13, 11, 2, 0)
s = 69: (0, 16, 10, 33, 19, 39, 7, 9, 22, 9, 4, 0)
s = 70: (0, 20, 20, 53, 20, 34, 9, 13, 18, 6, 3, 0)
s = 71: (0, 27, 14, 30, 12, 29, 11, 7, 33, 12, 4, 0)
s = 72: (0, 24, 11, 64, 17, 30, 7, 13, 17, 8, 4, 0)
s = 73: (0, 24, 16, 64, 10, 38, 8, 10, 23, 9, 5, 0)
s = 74: (0, 30, 19, 37, 9, 38, 6, 9, 13, 8, 4, 0)
s = 75: (0, 23, 16, 36, 12, 30, 12, 9, 17, 9, 3, 0)
s = 76: (0, 23, 15, 28, 9, 23, 6, 12, 20, 7, 5, 0)
s = 77: (0, 29, 13, 26, 7, 29, 8, 12, 12, 6, 4, 0)
s = 78: (0, 14, 17, 40, 12, 34, 14, 13, 13, 12, 3, 0)
s = 79: (0, 15, 22, 42, 15, 26, 8, 11, 23, 11, 3, 0)
s = 80: (0, 24, 9, 51, 10, 29, 9, 14, 11, 17, 2, 0)
s = 81: (0, 19, 14, 21, 12, 26, 8, 11, 23, 7, 5, 0)
s = 82: (0, 26, 14, 52, 9, 34, 8, 8, 13, 11, 3, 0)
s = 83: (0, 19, 9, 41, 9, 21, 9, 9, 16, 17, 4, 0)
s = 84: (0, 26, 17, 31, 10, 55, 10, 13, 24, 9, 5, 0)
s = 85: (0, 29, 15, 35, 10, 26, 11, 8, 12, 8, 4, 0)
s = 86: (0, 16, 15, 27, 16, 33, 7, 6, 19, 13, 3, 0)
s = 87: (0, 23, 19, 46, 13, 34, 9, 8, 25, 7, 3, 0)
s = 88: (0, 29, 10, 44, 17, 30, 9, 7, 15, 15, 4, 0)
s = 89: (0, 27, 10, 30, 10, 37, 7, 11, 21, 11, 2, 0)
s = 90: (0, 28, 23, 34, 18, 48, 7, 12, 32, 13, 3, 0)
s = 91: (0, 20, 19, 27, 7, 31, 9, 8, 21, 10, 2, 0)
s = 92: (0, 14, 11, 34, 9, 25, 11, 13, 16, 14, 5, 0)
s = 93: (0, 23, 13, 59, 11, 37, 16, 9, 16, 14, 4, 0)
s = 94: (0, 19, 12, 38, 9, 28, 7, 8, 26, 7, 6, 0)
s = 95: (0, 20, 11, 38, 15, 29, 7, 11, 18, 10, 4, 0)
s = 96: (0, 17, 15, 32, 9, 31, 10, 7, 16, 10, 3, 0)
s = 97: (0, 33, 9, 36, 13, 40, 6, 10, 25, 11, 4, 0)
s = 98: (0, 24, 21, 33, 10, 27, 8, 10, 29, 10, 3, 0)
s = 99: (0, 25, 12, 24, 14, 23, 12, 8, 16, 15, 3, 0)
s = 100: (0, 16, 22, 32, 8, 38, 9, 8, 19, 10, 4, 0)
s = 101: (0, 22, 11, 42, 8, 25, 10, 11, 22, 9, 4, 0)
s = 102: (0, 29, 14, 31, 13, 31, 7, 10, 14, 9, 3, 0)
s = 103: (0, 15, 10, 23, 16, 40, 10, 9, 22, 9, 3, 0)
s = 104: (0, 25, 22, 44, 10, 24, 6, 9, 17, 10, 2, 0)
s = 105: (0, 31, 12, 44, 10, 20, 7, 9, 18, 10, 3, 0)
s = 106: (0, 15, 15, 31, 8, 44, 8, 6, 16, 13, 3, 0)
s = 107: (0, 15, 19, 35, 9, 53, 9, 9, 16, 13, 4, 0)
s = 108: (0, 23, 20, 49, 10, 50, 7, 6, 15, 7, 2, 0)
s = 109: (0, 30, 23, 49, 12, 21, 8, 6, 18, 14, 5, 0)
s = 110: (0, 14, 8, 29, 17, 23, 6, 7, 15, 14, 3, 0)
s = 111: (0, 31, 19, 37, 10, 49, 12, 11, 21, 9, 3, 0)
s = 112: (0, 23, 20, 41, 24, 50, 10, 12, 19, 11, 3, 0)
s = 113: (0, 27, 15, 35, 12, 29, 8, 6, 17, 11, 4, 0)
s = 114: (0, 18, 14, 29, 9, 43, 12, 10, 12, 12, 4, 0)
s = 115: (0, 21, 11, 55, 11, 38, 7, 12, 13, 9, 4, 0)
s = 116: (0, 16, 23, 30, 12, 45, 8, 8, 18, 12, 6, 0)
s = 117: (0, 22, 9, 33, 10, 23, 9, 12, 13, 12, 3, 0)
s = 118: (0, 14, 14, 33, 11, 45, 9, 8, 22, 13, 3, 0)
s = 119: (0, 30, 11, 36, 12, 25, 9, 8, 16, 12, 5, 0)
s = 120: (0, 28, 14, 44, 7, 60, 7, 15, 15, 12, 4, 0)
s = 121: (0, 29, 21, 46, 19, 44, 8, 9, 17, 11, 4, 0)
s = 122: (0, 19, 9, 38, 10, 38, 7, 7, 24, 8, 4, 0)
s = 123: (0, 27, 20, 41, 12, 24, 6, 10, 17, 9, 5, 0)
s = 124: (0, 29, 16, 35, 16, 35, 8, 8, 31, 12, 3, 0)
s = 125: (0, 15, 25, 27, 10, 22, 7, 15, 18, 12, 3, 0)
s = 126: (0, 19, 16, 39, 8, 30, 8, 10, 17, 9, 4, 0)
s = 127: (0, 21, 14, 45, 15, 34, 5, 10, 13, 7, 3, 0)
s = 128: (0, 21, 13, 30, 9, 38, 6, 6, 21, 15, 4, 0)
s = 129: (0, 22, 10, 61, 10, 49, 10, 7, 21, 13, 4, 0)
s = 130: (0, 19, 16, 55, 9, 31, 6, 7, 27, 14, 3, 0)
s = 131: (0, 24, 13, 50, 15, 40, 9, 7, 18, 10, 3, 0)
s = 132: (0, 16, 13, 47, 15, 27, 11, 9, 19, 12, 2, 0)
s = 133: (0, 23, 10, 22, 8, 21, 10, 10, 19, 10, 2, 0)
s = 134: (0, 32, 14, 38, 13, 34, 6, 9, 12, 7, 4, 0)
s = 135: (0, 15, 16, 39, 9, 45, 11, 5, 18, 10, 3, 0)
s = 136: (0, 20, 12, 30, 10, 31, 8, 11, 21, 11, 4, 0)
s = 137: (0, 25, 13, 28, 16, 38, 9, 8, 22, 15, 4, 0)
s = 138: (0, 16, 11, 23, 13, 34, 7, 12, 25, 10, 3, 0)
s = 139: (0, 20, 11, 39, 12, 31, 8, 8, 17, 16, 4, 0)
s = 140: (0, 18, 14, 47, 11, 53, 8, 8, 15, 11, 4, 0)
s = 141: (0, 31, 11, 46, 14, 38, 7, 12, 33, 10, 3, 0)
s = 142: (0, 23, 15, 36, 8, 27, 5, 10, 27, 9, 4, 0)
s = 143: (0, 21, 11, 28, 17, 31, 11, 12, 30, 13, 3, 0)
s = 144: (0, 15, 14, 30, 11, 29, 7, 9, 14, 11, 3, 0)
s = 145: (0, 24, 19, 31, 15, 39, 10, 10, 16, 8, 2, 0)
s = 146: (0, 20, 21, 27, 13, 23, 5, 11, 13, 11, 3, 0)
s = 147: (0, 22, 9, 34, 17, 21, 8, 10, 18, 12, 6, 0)
s = 148: (0, 25, 17, 33, 15, 41, 11, 12, 21, 7, 4, 0)
s = 149: (0, 20, 18, 40, 12, 37, 5, 9, 22, 13, 3, 0)
s = 150: (0, 16, 21, 34, 16, 34, 7, 7, 19, 11, 2, 0)
s = 151: (0, 20, 15, 40, 10, 21, 10, 11, 15, 7, 5, 0)
s = 152: (0, 21, 19, 39, 12, 23, 13, 8, 21, 10, 4, 0)
s = 153: (0, 25, 14, 37, 14, 34, 11, 6, 26, 15, 2, 0)
s = 154: (0, 20, 19, 49, 9, 22, 7, 6, 20, 9, 4, 0)
s = 155: (0, 22, 24, 59, 12, 22, 13, 11, 18, 11, 3, 0)
s = 156: (0, 15, 9, 58, 11, 30, 9, 7, 26, 9, 4, 0)
s = 157: (0, 26, 16, 59, 16, 33, 9, 7, 20, 12, 5, 0)
s = 158: (0, 15, 14, 67, 9, 31, 6, 9, 20, 12, 3, 0)
s = 159: (0, 18, 21, 36, 17, 23, 10, 9, 21, 7, 6, 0)
s = 160: (0, 26, 14, 32, 12, 29, 9, 7, 22, 10, 3, 0)
s = 161: (0, 14, 11, 42, 16, 18, 8, 9, 16, 10, 3, 0)
s = 162: (0, 17, 10, 55, 10, 24, 10, 8, 18, 8, 3, 0)
s = 163: (0, 17, 11, 25, 9, 20, 10, 8, 15, 16, 4, 0)
s = 164: (0, 17, 15, 45, 14, 41, 7, 12, 21, 9, 4, 0)
s = 165: (0, 26, 11, 38, 12, 19, 5, 7, 18, 14, 4, 0)
s = 166: (0, 13, 25, 37, 14, 43, 6, 7, 16, 11, 4, 0)
s = 167: (0, 25, 13, 51, 15, 35, 6, 6, 22, 10, 5, 0)
s = 168: (0, 16, 16, 34, 9, 39, 11, 14, 16, 11, 4, 0)
s = 169: (0, 14, 11, 61, 12, 23, 6, 9, 23, 12, 4, 0)
s = 170: (0, 23, 10, 44, 11, 40, 9, 16, 38, 8, 3, 0)
s = 171: (0, 16, 11, 37, 11, 24, 13, 8, 19, 8, 4, 0)
s = 172: (0, 20, 18, 48, 13, 47, 12, 10, 19, 11, 3, 0)
s = 173: (0, 37, 9, 35, 20, 34, 14, 12, 29, 9, 4, 0)
s = 174: (0, 18, 13, 40, 13, 33, 8, 7, 17, 11, 2, 0)
s = 175: (0, 29, 13, 39, 9, 61, 8, 9, 30, 9, 5, 0)
s = 176: (0, 18, 16, 42, 10, 22, 9, 12, 28, 10, 4, 0)
s = 177: (0, 18, 9, 30, 10, 27, 11, 10, 31, 14, 4, 0)
s = 178: (0, 27, 12, 31, 13, 41, 15, 14, 12, 8, 4, 0)
s = 179: (0, 39, 20, 32, 18, 37, 7, 18, 19, 11, 3, 0)
s = 180: (0, 16, 12, 40, 13, 30, 9, 12, 14, 8, 4, 0)
s = 181: (0, 19, 15, 54, 18, 23, 10, 7, 16, 13, 2, 0)
s = 182: (0, 26, 13, 50, 14, 43, 7, 11, 18, 11, 3, 0)
s = 183: (0, 30, 10, 28, 17, 32, 5, 7, 22, 10, 2, 0)
s = 184: (0, 30, 13, 24, 11, 50, 10, 10, 16, 7, 4, 0)
s = 185: (0, 28, 14, 39, 12, 19, 8, 7, 34, 8, 4, 0)
s = 186: (0, 12, 16, 37, 14, 21, 8, 14, 14, 9, 5, 0)
s = 187: (0, 25, 14, 57, 10, 35, 13, 11, 19, 6, 2, 0)
s = 188: (0, 18, 16, 39, 9, 35, 8, 8, 11, 7, 3, 0)
s = 189: (0, 18, 11, 50, 19, 36, 8, 9, 22, 10, 3, 0)
s = 190: (0, 23, 16, 29, 8, 26, 7, 9, 19, 8, 3, 0)
s = 191: (0, 16, 18, 26, 13, 40, 8, 12, 17, 9, 3, 0)
s = 192: (0, 20, 20, 35, 8, 39, 7, 5, 20, 13, 3, 0)
s = 193: (0, 22, 11, 45, 10, 32, 8, 10, 20, 8, 3, 0)
s = 194: (0, 34, 17, 37, 9, 41, 5, 6, 15, 6, 3, 0)
s = 195: (0, 16, 20, 55, 14, 50, 7, 10, 13, 6, 5, 0)
s = 196: (0, 16, 16, 60, 11, 25, 11, 7, 21, 9, 3, 0)
s = 197: (0, 16, 15, 35, 10, 19, 8, 8, 28, 12, 4, 0)
s = 198: (0, 30, 23, 30, 10, 28, 7, 11, 23, 17, 2, 0)
s = 199: (0, 29, 27, 41, 10, 42, 7, 10, 25, 10, 3, 0)
s = 200: (0, 18, 13, 43, 22, 19, 6, 10, 18, 8, 4, 0)
------------------------------------------------------------------------
RESOURCE k = 2
s = 1: (0, 37, 25, 29, 17, 47, 32, 6, 31, 15, 6, 0)
s = 2: (0, 19, 16, 51, 17, 47, 15, 3, 14, 16, 8, 0)
s = 3: (0, 35, 23, 55, 23, 79, 31, 4, 28, 17, 7, 0)
s = 4: (0, 34, 29, 39, 14, 63, 15, 6, 28, 25, 4, 0)
s = 5: (0, 35, 28, 35, 15, 91, 19, 6, 25, 22, 6, 0)
s = 6: (0, 17, 14, 31, 14, 58, 15, 7, 23, 19, 5, 0)
s = 7: (0, 31, 14, 50, 26, 61, 16, 5, 17, 24, 5, 0)
s = 8: (0, 15, 37, 46, 22, 46, 15, 4, 28, 19, 4, 0)
s = 9: (0, 23, 16, 52, 31, 74, 36, 5, 23, 22, 6, 0)
s = 10: (0, 29, 20, 64, 16, 63, 19, 5, 18, 17, 4, 0)
s = 11: (0, 33, 15, 63, 19, 54, 19, 7, 22, 21, 5, 0)
s = 12: (0, 24, 22, 40, 12, 43, 18, 6, 23, 16, 8, 0)
s = 13: (0, 34, 29, 59, 25, 33, 26, 5, 23, 29, 8, 0)
s = 14: (0, 22, 17, 29, 17, 79, 22, 5, 20, 24, 7, 0)
s = 15: (0, 17, 15, 45, 20, 67, 16, 4, 21, 14, 4, 0)
s = 16: (0, 25, 13, 56, 15, 56, 17, 6, 18, 22, 5, 0)
s = 17: (0, 18, 18, 38, 16, 51, 19, 6, 24, 19, 5, 0)
s = 18: (0, 21, 30, 40, 27, 60, 14, 7, 26, 18, 4, 0)
s = 19: (0, 23, 29, 28, 19, 71, 18, 5, 18, 29, 5, 0)
s = 20: (0, 24, 25, 43, 28, 39, 21, 7, 17, 17, 6, 0)
s = 21: (0, 25, 24, 31, 13, 42, 17, 6, 19, 15, 6, 0)
s = 22: (0, 23, 20, 30, 21, 43, 24, 6, 32, 12, 5, 0)
s = 23: (0, 27, 23, 36, 19, 60, 30, 5, 14, 17, 5, 0)
s = 24: (0, 36, 22, 33, 15, 52, 19, 5, 13, 29, 7, 0)
s = 25: (0, 35, 21, 29, 20, 61, 15, 3, 11, 29, 3, 0)
s = 26: (0, 26, 26, 59, 13, 64, 23, 6, 16, 21, 5, 0)
s = 27: (0, 22, 13, 62, 34, 50, 18, 6, 34, 16, 6, 0)
s = 28: (0, 24, 23, 36, 18, 89, 17, 6, 26, 25, 7, 0)
s = 29: (0, 30, 26, 34, 16, 48, 21, 4, 17, 29, 9, 0)
s = 30: (0, 36, 17, 49, 15, 49, 30, 4, 18, 19, 3, 0)
s = 31: (0, 25, 32, 36, 10, 42, 20, 4, 14, 21, 7, 0)
s = 32: (0, 26, 17, 45, 29, 50, 16, 5, 24, 13, 7, 0)
s = 33: (0, 25, 23, 26, 11, 71, 21, 5, 20, 14, 8, 0)
s = 34: (0, 25, 21, 40, 33, 55, 13, 4, 16, 12, 4, 0)
s = 35: (0, 35, 25, 33, 18, 81, 24, 5, 12, 21, 4, 0)
s = 36: (0, 33, 15, 42, 19, 59, 21, 6, 29, 25, 4, 0)
s = 37: (0, 19, 28, 53, 18, 51, 22, 4, 31, 14, 6, 0)
s = 38: (0, 33, 16, 51, 21, 45, 23, 4, 27, 12, 5, 0)
s = 39: (0, 17, 14, 39, 15, 60, 24, 7, 18, 11, 6, 0)
s = 40: (0, 29, 16, 43, 16, 43, 18, 3, 16, 16, 6, 0)
s = 41: (0, 30, 21, 48, 17, 44, 18, 5, 19, 32, 6, 0)
s = 42: (0, 23, 15, 54, 18, 64, 20, 6, 22, 16, 4, 0)
s = 43: (0, 29, 18, 34, 13, 46, 28, 7, 27, 29, 7, 0)
s = 44: (0, 18, 13, 62, 25, 40, 11, 6, 28, 24, 6, 0)
s = 45: (0, 14, 18, 24, 23, 89, 18, 5, 16, 24, 3, 0)
s = 46: (0, 33, 20, 39, 15, 62, 28, 6, 32, 20, 4, 0)
s = 47: (0, 24, 16, 43, 12, 70, 17, 5, 19, 24, 4, 0)
s = 48: (0, 20, 19, 34, 15, 57, 26, 4, 24, 20, 4, 0)
s = 49: (0, 18, 13, 73, 12, 50, 15, 5, 26, 15, 7, 0)
s = 50: (0, 33, 14, 49, 28, 58, 17, 7, 19, 23, 4, 0)
s = 51: (0, 24, 12, 33, 24, 40, 15, 7, 20, 30, 5, 0)
s = 52: (0, 24, 12, 26, 23, 50, 17, 4, 27, 24, 4, 0)
s = 53: (0, 29, 21, 68, 21, 71, 16, 8, 30, 27, 7, 0)
s = 54: (0, 27, 29, 35, 22, 36, 31, 6, 15, 22, 6, 0)
s = 55: (0, 32, 20, 54, 21, 45, 22, 4, 16, 14, 4, 0)
s = 56: (0, 30, 16, 49, 17, 65, 23, 7, 17, 21, 5, 0)
s = 57: (0, 25, 24, 34, 24, 74, 15, 4, 27, 27, 5, 0)
s = 58: (0, 33, 27, 35, 10, 51, 22, 4, 19, 13, 9, 0)
s = 59: (0, 13, 19, 54, 19, 43, 13, 4, 30, 24, 8, 0)
s = 60: (0, 25, 12, 51, 17, 104, 26, 6, 20, 21, 4, 0)
s = 61: (0, 29, 30, 40, 15, 68, 14, 4, 18, 23, 5, 0)
s = 62: (0, 19, 14, 31, 17, 60, 17, 4, 26, 25, 3, 0)
s = 63: (0, 34, 19, 35, 12, 35, 22, 5, 19, 16, 4, 0)
s = 64: (0, 24, 29, 53, 25, 59, 20, 9, 27, 24, 4, 0)
s = 65: (0, 21, 15, 31, 16, 83, 25, 5, 26, 24, 5, 0)
s = 66: (0, 25, 17, 31, 19, 49, 17, 5, 21, 24, 9, 0)
s = 67: (0, 31, 21, 49, 20, 63, 14, 5, 28, 19, 5, 0)
s = 68: (0, 24, 22, 45, 17, 75, 30, 4, 13, 21, 4, 0)
s = 69: (0, 19, 14, 33, 28, 68, 18, 5, 22, 17, 7, 0)
s = 70: (0, 23, 29, 53, 30, 60, 21, 7, 18, 12, 5, 0)
s = 71: (0, 30, 20, 30, 18, 51, 28, 4, 33, 23, 7, 0)
s = 72: (0, 27, 15, 64, 26, 51, 18, 7, 17, 16, 6, 0)
s = 73: (0, 27, 23, 64, 14, 66, 19, 6, 23, 17, 7, 0)
s = 74: (0, 35, 28, 37, 14, 67, 14, 5, 13, 15, 6, 0)
s = 75: (0, 26, 22, 36, 18, 52, 29, 5, 17, 18, 5, 0)
s = 76: (0, 26, 21, 28, 13, 41, 15, 7, 20, 14, 7, 0)
s = 77: (0, 33, 18, 26, 11, 50, 19, 7, 12, 12, 7, 0)
s = 78: (0, 16, 24, 40, 18, 59, 33, 7, 13, 24, 4, 0)
s = 79: (0, 17, 31, 42, 22, 45, 19, 6, 23, 22, 5, 0)
s = 80: (0, 28, 13, 51, 15, 50, 22, 8, 11, 34, 4, 0)
s = 81: (0, 21, 19, 21, 18, 44, 19, 7, 23, 14, 8, 0)
s = 82: (0, 29, 20, 52, 14, 58, 20, 5, 13, 22, 4, 0)
s = 83: (0, 22, 12, 41, 13, 36, 23, 5, 16, 34, 6, 0)
s = 84: (0, 29, 24, 31, 15, 95, 24, 8, 24, 18, 7, 0)
s = 85: (0, 34, 21, 35, 14, 45, 27, 5, 12, 15, 6, 0)
s = 86: (0, 18, 21, 27, 24, 57, 17, 3, 19, 26, 5, 0)
s = 87: (0, 26, 27, 46, 19, 60, 22, 5, 25, 14, 5, 0)
s = 88: (0, 33, 13, 44, 25, 52, 22, 4, 15, 30, 6, 0)
s = 89: (0, 31, 14, 30, 15, 65, 17, 6, 21, 21, 4, 0)
s = 90: (0, 32, 32, 34, 27, 84, 16, 7, 32, 25, 4, 0)
s = 91: (0, 23, 27, 27, 11, 53, 22, 5, 21, 20, 4, 0)
s = 92: (0, 16, 16, 34, 13, 43, 28, 7, 16, 27, 8, 0)
s = 93: (0, 26, 19, 59, 16, 64, 39, 5, 16, 27, 6, 0)
s = 94: (0, 21, 17, 38, 13, 49, 16, 5, 26, 14, 10, 0)
s = 95: (0, 23, 15, 38, 23, 50, 17, 6, 18, 20, 6, 0)
s = 96: (0, 19, 21, 32, 14, 54, 23, 4, 16, 19, 4, 0)
s = 97: (0, 38, 12, 36, 20, 70, 14, 6, 25, 22, 6, 0)
s = 98: (0, 27, 30, 33, 14, 47, 19, 6, 29, 19, 5, 0)
s = 99: (0, 29, 17, 24, 20, 39, 30, 5, 16, 30, 5, 0)
s = 100: (0, 18, 32, 32, 12, 66, 22, 5, 19, 20, 6, 0)
s = 101: (0, 25, 16, 42, 11, 44, 24, 6, 22, 18, 6, 0)
s = 102: (0, 33, 20, 31, 20, 55, 16, 6, 14, 18, 5, 0)
s = 103: (0, 17, 14, 23, 24, 69, 23, 5, 22, 17, 5, 0)
s = 104: (0, 29, 31, 44, 14, 42, 15, 5, 17, 19, 4, 0)
s = 105: (0, 35, 17, 44, 15, 34, 17, 5, 18, 19, 5, 0)
s = 106: (0, 17, 22, 31, 12, 77, 20, 4, 16, 26, 4, 0)
s = 107: (0, 17, 27, 35, 13, 92, 21, 5, 16, 26, 7, 0)
s = 108: (0, 26, 28, 49, 14, 87, 17, 4, 15, 13, 4, 0)
s = 109: (0, 35, 32, 49, 17, 36, 20, 3, 18, 27, 8, 0)
s = 110: (0, 16, 11, 29, 25, 40, 13, 4, 15, 27, 5, 0)
s = 111: (0, 35, 27, 37, 14, 85, 29, 7, 21, 17, 4, 0)
s = 112: (0, 26, 29, 41, 35, 88, 23, 7, 19, 22, 5, 0)
s = 113: (0, 31, 21, 35, 18, 50, 20, 3, 17, 22, 6, 0)
s = 114: (0, 21, 19, 29, 13, 74, 28, 6, 12, 24, 6, 0)
s = 115: (0, 23, 16, 55, 17, 66, 17, 7, 13, 17, 7, 0)
s = 116: (0, 18, 32, 30, 18, 79, 19, 4, 18, 23, 9, 0)
s = 117: (0, 25, 12, 33, 15, 41, 22, 7, 13, 23, 5, 0)
s = 118: (0, 16, 20, 33, 17, 78, 22, 4, 22, 25, 5, 0)
s = 119: (0, 35, 15, 36, 18, 44, 23, 5, 16, 23, 9, 0)
s = 120: (0, 32, 20, 44, 11, 104, 17, 8, 15, 23, 6, 0)
s = 121: (0, 33, 30, 46, 28, 76, 20, 5, 17, 21, 6, 0)
s = 122: (0, 22, 12, 38, 15, 66, 16, 4, 24, 15, 7, 0)
s = 123: (0, 30, 28, 41, 18, 41, 14, 6, 17, 18, 8, 0)
s = 124: (0, 33, 23, 35, 23, 60, 19, 5, 31, 23, 5, 0)
s = 125: (0, 17, 36, 27, 15, 39, 18, 9, 18, 24, 4, 0)
s = 126: (0, 22, 22, 39, 12, 53, 19, 6, 17, 18, 6, 0)
s = 127: (0, 24, 20, 45, 22, 59, 13, 6, 13, 14, 5, 0)
s = 128: (0, 24, 19, 30, 13, 66, 15, 4, 21, 30, 7, 0)
s = 129: (0, 25, 14, 61, 15, 86, 23, 4, 21, 25, 6, 0)
s = 130: (0, 22, 22, 55, 13, 54, 15, 4, 27, 28, 4, 0)
s = 131: (0, 27, 19, 50, 22, 70, 22, 4, 18, 19, 5, 0)
s = 132: (0, 18, 18, 47, 23, 47, 27, 5, 19, 23, 3, 0)
s = 133: (0, 26, 14, 22, 11, 37, 24, 6, 19, 19, 3, 0)
s = 134: (0, 37, 20, 38, 19, 60, 15, 5, 12, 14, 7, 0)
s = 135: (0, 17, 23, 39, 13, 78, 26, 3, 18, 20, 4, 0)
s = 136: (0, 23, 17, 30, 15, 54, 20, 6, 21, 22, 6, 0)
s = 137: (0, 29, 18, 28, 24, 67, 23, 5, 22, 30, 7, 0)
s = 138: (0, 18, 15, 23, 20, 58, 16, 7, 25, 19, 5, 0)
s = 139: (0, 22, 16, 39, 18, 53, 18, 5, 17, 31, 6, 0)
s = 140: (0, 21, 19, 47, 16, 92, 19, 4, 15, 22, 7, 0)
s = 141: (0, 35, 16, 46, 21, 66, 18, 7, 33, 20, 5, 0)
s = 142: (0, 26, 22, 36, 12, 47, 13, 6, 27, 18, 6, 0)
s = 143: (0, 24, 15, 28, 26, 53, 27, 7, 30, 26, 4, 0)
s = 144: (0, 18, 20, 30, 17, 51, 16, 5, 14, 22, 5, 0)
s = 145: (0, 27, 26, 31, 23, 67, 24, 6, 16, 16, 3, 0)
s = 146: (0, 23, 29, 27, 19, 41, 13, 7, 13, 21, 4, 0)
s = 147: (0, 25, 12, 34, 25, 37, 20, 6, 18, 24, 9, 0)
s = 148: (0, 29, 25, 33, 23, 72, 28, 7, 21, 13, 6, 0)
s = 149: (0, 23, 26, 40, 18, 65, 12, 5, 22, 25, 5, 0)
s = 150: (0, 18, 29, 34, 23, 60, 16, 4, 19, 22, 4, 0)
s = 151: (0, 23, 21, 40, 14, 36, 24, 7, 15, 14, 9, 0)
s = 152: (0, 24, 27, 39, 18, 40, 31, 5, 21, 19, 6, 0)
s = 153: (0, 28, 19, 37, 21, 58, 27, 3, 26, 29, 3, 0)
s = 154: (0, 23, 27, 49, 13, 38, 16, 3, 20, 18, 6, 0)
s = 155: (0, 25, 35, 59, 17, 38, 32, 6, 18, 22, 5, 0)
s = 156: (0, 18, 13, 58, 16, 52, 22, 4, 26, 18, 6, 0)
s = 157: (0, 29, 22, 59, 24, 57, 23, 4, 20, 24, 8, 0)
s = 158: (0, 18, 20, 67, 13, 53, 15, 5, 20, 23, 5, 0)
s = 159: (0, 20, 29, 36, 26, 39, 24, 5, 21, 13, 9, 0)
s = 160: (0, 30, 19, 32, 18, 50, 22, 4, 22, 19, 4, 0)
s = 161: (0, 16, 16, 42, 23, 31, 20, 5, 16, 20, 5, 0)
s = 162: (0, 20, 14, 55, 15, 41, 25, 5, 18, 16, 5, 0)
s = 163: (0, 20, 16, 25, 13, 34, 23, 5, 15, 32, 7, 0)
s = 164: (0, 20, 21, 45, 21, 71, 18, 7, 21, 17, 7, 0)
s = 165: (0, 30, 15, 38, 17, 33, 13, 4, 18, 28, 7, 0)
s = 166: (0, 15, 36, 37, 21, 75, 15, 4, 16, 22, 6, 0)
s = 167: (0, 28, 19, 51, 22, 60, 14, 4, 22, 20, 8, 0)
s = 168: (0, 18, 22, 34, 14, 67, 26, 8, 16, 22, 7, 0)
s = 169: (0, 15, 16, 61, 17, 39, 13, 5, 23, 24, 6, 0)
s = 170: (0, 26, 14, 44, 16, 70, 21, 9, 38, 15, 5, 0)
s = 171: (0, 18, 15, 37, 16, 42, 32, 5, 19, 16, 6, 0)
s = 172: (0, 23, 26, 48, 20, 82, 28, 6, 19, 22, 4, 0)
s = 173: (0, 42, 12, 35, 30, 59, 33, 7, 29, 18, 6, 0)
s = 174: (0, 20, 19, 40, 20, 57, 19, 4, 17, 21, 4, 0)
s = 175: (0, 34, 19, 39, 14, 107, 19, 5, 30, 18, 9, 0)
s = 176: (0, 20, 23, 42, 14, 38, 22, 7, 28, 20, 7, 0)
s = 177: (0, 20, 13, 30, 15, 46, 27, 6, 31, 27, 6, 0)
s = 178: (0, 31, 17, 31, 19, 71, 36, 8, 12, 16, 6, 0)
s = 179: (0, 44, 28, 32, 26, 65, 17, 10, 19, 22, 5, 0)
s = 180: (0, 18, 16, 40, 20, 51, 22, 7, 14, 15, 6, 0)
s = 181: (0, 22, 21, 54, 27, 40, 25, 4, 16, 26, 4, 0)
s = 182: (0, 30, 19, 50, 21, 75, 18, 7, 18, 22, 5, 0)
s = 183: (0, 35, 15, 28, 25, 56, 12, 4, 22, 20, 4, 0)
s = 184: (0, 34, 19, 24, 16, 88, 24, 6, 16, 14, 6, 0)
s = 185: (0, 32, 19, 39, 18, 32, 20, 4, 34, 16, 6, 0)
s = 186: (0, 14, 22, 37, 21, 36, 20, 8, 14, 18, 7, 0)
s = 187: (0, 29, 20, 57, 15, 61, 31, 6, 19, 11, 4, 0)
s = 188: (0, 21, 23, 39, 13, 61, 18, 5, 11, 13, 5, 0)
s = 189: (0, 20, 16, 50, 29, 63, 20, 5, 22, 19, 5, 0)
s = 190: (0, 26, 23, 29, 12, 45, 17, 5, 19, 16, 5, 0)
s = 191: (0, 18, 26, 26, 19, 70, 19, 7, 17, 18, 4, 0)
s = 192: (0, 23, 28, 35, 12, 68, 17, 3, 20, 25, 5, 0)
s = 193: (0, 25, 15, 45, 15, 56, 19, 6, 20, 16, 5, 0)
s = 194: (0, 39, 24, 37, 13, 71, 13, 3, 15, 12, 4, 0)
s = 195: (0, 18, 29, 55, 21, 88, 17, 6, 13, 12, 8, 0)
s = 196: (0, 19, 22, 60, 17, 43, 26, 4, 21, 17, 4, 0)
s = 197: (0, 18, 21, 35, 15, 33, 19, 4, 28, 23, 6, 0)
s = 198: (0, 34, 32, 30, 15, 48, 17, 6, 23, 34, 3, 0)
s = 199: (0, 33, 39, 41, 15, 74, 16, 6, 25, 20, 4, 0)
s = 200: (0, 21, 18, 43, 32, 34, 14, 6, 18, 15, 6, 0)
------------------------------------------------------------------------
RESOURCE k = 3
s = 1: (0, 42, 20, 17, 14, 47, 16, 9, 77, 8, 8, 0)
s = 2: (0, 21, 13, 31, 14, 47, 8, 5, 34, 8, 11, 0)
s = 3: (0, 39, 19, 33, 18, 79, 16, 6, 68, 9, 10, 0)
s = 4: (0, 39, 23, 24, 11, 63, 8, 9, 68, 13, 5, 0)
s = 5: (0, 39, 22, 21, 12, 91, 10, 10, 62, 11, 8, 0)
s = 6: (0, 19, 11, 19, 11, 58, 8, 12, 56, 10, 7, 0)
s = 7: (0, 35, 12, 30, 20, 61, 8, 8, 42, 12, 7, 0)
s = 8: (0, 17, 30, 28, 17, 46, 8, 6, 70, 10, 5, 0)
s = 9: (0, 25, 13, 31, 24, 74, 18, 7, 57, 11, 9, 0)
s = 10: (0, 33, 16, 39, 13, 63, 10, 7, 45, 9, 6, 0)
s = 11: (0, 37, 12, 38, 15, 54, 10, 11, 55, 11, 7, 0)
s = 12: (0, 27, 18, 24, 10, 43, 9, 9, 57, 8, 12, 0)
s = 13: (0, 38, 23, 36, 19, 33, 13, 7, 58, 15, 11, 0)
s = 14: (0, 25, 13, 18, 13, 79, 11, 8, 50, 12, 9, 0)
s = 15: (0, 19, 12, 27, 15, 67, 8, 6, 52, 7, 6, 0)
s = 16: (0, 28, 10, 34, 12, 56, 9, 9, 44, 11, 7, 0)
s = 17: (0, 20, 15, 23, 13, 51, 10, 10, 60, 10, 7, 0)
s = 18: (0, 23, 24, 24, 21, 60, 7, 10, 64, 9, 6, 0)
s = 19: (0, 25, 23, 17, 15, 71, 9, 8, 44, 15, 7, 0)
s = 20: (0, 27, 20, 26, 22, 39, 11, 10, 41, 9, 8, 0)
s = 21: (0, 29, 19, 19, 10, 42, 9, 9, 46, 8, 8, 0)
s = 22: (0, 26, 16, 18, 17, 43, 12, 10, 79, 6, 7, 0)
s = 23: (0, 30, 19, 22, 15, 60, 15, 8, 34, 9, 7, 0)
s = 24: (0, 40, 18, 20, 12, 52, 10, 7, 32, 15, 10, 0)
s = 25: (0, 39, 17, 18, 16, 61, 8, 5, 27, 15, 5, 0)
s = 26: (0, 29, 21, 35, 11, 64, 12, 10, 39, 11, 7, 0)
s = 27: (0, 25, 11, 37, 26, 50, 9, 9, 84, 8, 9, 0)
s = 28: (0, 27, 18, 22, 14, 89, 9, 10, 65, 13, 10, 0)
s = 29: (0, 33, 21, 21, 13, 48, 11, 5, 42, 15, 13, 0)
s = 30: (0, 41, 14, 30, 12, 49, 15, 7, 45, 10, 5, 0)
s = 31: (0, 28, 25, 22, 8, 42, 10, 7, 34, 11, 10, 0)
s = 32: (0, 29, 14, 27, 23, 50, 8, 7, 58, 7, 10, 0)
s = 33: (0, 28, 18, 16, 9, 71, 11, 8, 49, 7, 11, 0)
s = 34: (0, 28, 17, 24, 26, 55, 7, 6, 40, 6, 6, 0)
s = 35: (0, 39, 20, 20, 14, 81, 12, 7, 30, 11, 5, 0)
s = 36: (0, 37, 12, 26, 15, 59, 11, 9, 73, 13, 5, 0)
s = 37: (0, 22, 22, 32, 14, 51, 11, 5, 78, 7, 8, 0)
s = 38: (0, 37, 13, 31, 17, 45, 12, 6, 67, 6, 7, 0)
s = 39: (0, 19, 11, 24, 12, 60, 12, 10, 45, 6, 9, 0)
s = 40: (0, 33, 13, 26, 13, 43, 9, 5, 39, 8, 8, 0)
s = 41: (0, 33, 17, 29, 13, 44, 9, 8, 46, 16, 8, 0)
s = 42: (0, 26, 12, 33, 14, 64, 10, 9, 54, 8, 5, 0)
s = 43: (0, 32, 15, 20, 11, 46, 14, 11, 66, 15, 10, 0)
s = 44: (0, 20, 11, 37, 19, 40, 6, 9, 70, 12, 8, 0)
s = 45: (0, 16, 15, 15, 18, 89, 9, 8, 40, 12, 5, 0)
s = 46: (0, 37, 16, 24, 12, 62, 14, 9, 80, 10, 6, 0)
s = 47: (0, 26, 13, 26, 10, 70, 9, 8, 46, 12, 5, 0)
s = 48: (0, 23, 15, 20, 11, 57, 13, 6, 60, 10, 6, 0)
s = 49: (0, 20, 11, 44, 9, 50, 8, 8, 65, 8, 10, 0)
s = 50: (0, 37, 11, 30, 22, 58, 9, 11, 47, 12, 5, 0)
s = 51: (0, 26, 10, 20, 19, 40, 8, 11, 48, 15, 7, 0)
s = 52: (0, 27, 10, 16, 18, 50, 9, 6, 67, 12, 5, 0)
s = 53: (0, 33, 17, 41, 16, 71, 8, 12, 74, 14, 9, 0)
s = 54: (0, 30, 23, 21, 17, 36, 16, 10, 36, 11, 8, 0)
s = 55: (0, 36, 16, 33, 17, 45, 11, 6, 39, 7, 5, 0)
s = 56: (0, 33, 13, 30, 13, 65, 12, 11, 41, 11, 6, 0)
s = 57: (0, 28, 19, 21, 19, 74, 8, 6, 67, 14, 7, 0)
s = 58: (0, 37, 21, 21, 8, 51, 11, 6, 46, 7, 12, 0)
s = 59: (0, 15, 15, 33, 15, 43, 7, 6, 74, 12, 11, 0)
s = 60: (0, 28, 9, 31, 13, 104, 13, 9, 50, 11, 5, 0)
s = 61: (0, 33, 24, 24, 12, 68, 7, 6, 44, 12, 6, 0)
s = 62: (0, 21, 11, 19, 13, 60, 9, 6, 65, 13, 5, 0)
s = 63: (0, 38, 16, 21, 10, 35, 11, 7, 46, 8, 6, 0)
s = 64: (0, 27, 24, 32, 19, 59, 10, 14, 66, 12, 5, 0)
s = 65: (0, 23, 12, 19, 13, 83, 13, 8, 65, 12, 6, 0)
s = 66: (0, 28, 14, 19, 15, 49, 9, 8, 51, 12, 12, 0)
s = 67: (0, 35, 17, 29, 16, 63, 7, 8, 69, 10, 6, 0)
s = 68: (0, 27, 18, 27, 13, 75, 15, 5, 31, 11, 5, 0)
s = 69: (0, 21, 12, 20, 22, 68, 9, 8, 54, 9, 10, 0)
s = 70: (0, 26, 23, 32, 23, 60, 11, 12, 45, 6, 7, 0)
s = 71: (0, 34, 16, 18, 14, 51, 14, 7, 81, 12, 9, 0)
s = 72: (0, 30, 12, 39, 20, 51, 9, 11, 41, 8, 8, 0)
s = 73: (0, 30, 19, 38, 11, 66, 10, 9, 58, 9, 10, 0)
s = 74: (0, 39, 22, 22, 11, 67, 7, 8, 32, 8, 8, 0)
s = 75: (0, 29, 18, 22, 14, 52, 15, 8, 42, 9, 7, 0)
s = 76: (0, 29, 17, 17, 10, 41, 8, 10, 50, 7, 10, 0)
s = 77: (0, 37, 15, 16, 8, 50, 10, 11, 30, 6, 9, 0)
s = 78: (0, 18, 19, 24, 14, 59, 17, 11, 32, 12, 6, 0)
s = 79: (0, 19, 25, 26, 17, 45, 10, 10, 56, 11, 7, 0)
s = 80: (0, 31, 10, 31, 12, 50, 11, 13, 26, 17, 5, 0)
s = 81: (0, 24, 16, 13, 14, 44, 10, 10, 57, 7, 11, 0)
s = 82: (0, 33, 16, 32, 11, 58, 10, 7, 32, 11, 5, 0)
s = 83: (0, 24, 10, 25, 10, 36, 12, 8, 39, 17, 8, 0)
s = 84: (0, 33, 19, 19, 12, 95, 12, 12, 59, 9, 10, 0)
s = 85: (0, 38, 17, 21, 11, 45, 14, 7, 28, 8, 8, 0)
s = 86: (0, 21, 17, 17, 19, 57, 9, 5, 46, 13, 7, 0)
s = 87: (0, 29, 22, 28, 15, 60, 11, 7, 61, 7, 7, 0)
s = 88: (0, 37, 11, 27, 20, 52, 11, 7, 37, 15, 9, 0)
s = 89: (0, 35, 11, 18, 12, 65, 9, 9, 52, 11, 5, 0)
s = 90: (0, 36, 26, 21, 21, 84, 8, 11, 79, 13, 6, 0)
s = 91: (0, 26, 21, 16, 8, 53, 11, 7, 52, 10, 5, 0)
s = 92: (0, 18, 13, 20, 11, 43, 14, 12, 39, 14, 11, 0)
s = 93: (0, 29, 15, 36, 13, 64, 20, 8, 40, 14, 8, 0)
s = 94: (0, 24, 14, 23, 10, 49, 8, 7, 64, 7, 14, 0)
s = 95: (0, 26, 12, 23, 18, 50, 9, 10, 44, 10, 9, 0)
s = 96: (0, 22, 17, 19, 11, 54, 12, 6, 39, 10, 5, 0)
s = 97: (0, 42, 10, 22, 16, 70, 7, 9, 61, 11, 8, 0)
s = 98: (0, 30, 24, 20, 11, 47, 10, 9, 73, 10, 7, 0)
s = 99: (0, 32, 13, 15, 16, 39, 15, 8, 38, 15, 7, 0)
s = 100: (0, 20, 26, 20, 9, 66, 11, 7, 46, 10, 8, 0)
s = 101: (0, 28, 13, 26, 9, 44, 12, 9, 54, 9, 8, 0)
s = 102: (0, 37, 16, 19, 15, 55, 8, 9, 35, 9, 7, 0)
s = 103: (0, 19, 12, 14, 19, 69, 12, 8, 53, 9, 6, 0)
s = 104: (0, 33, 25, 27, 11, 42, 8, 8, 43, 10, 5, 0)
s = 105: (0, 40, 13, 27, 11, 34, 9, 8, 44, 10, 7, 0)
s = 106: (0, 19, 18, 19, 10, 77, 10, 6, 40, 13, 6, 0)
s = 107: (0, 20, 22, 21, 10, 92, 11, 8, 40, 13, 9, 0)
s = 108: (0, 29, 22, 30, 11, 87, 9, 6, 37, 7, 5, 0)
s = 109: (0, 39, 26, 29, 14, 36, 10, 5, 43, 14, 12, 0)
s = 110: (0, 18, 9, 18, 20, 40, 7, 7, 37, 14, 7, 0)
s = 111: (0, 39, 22, 22, 11, 85, 15, 10, 52, 9, 6, 0)
s = 112: (0, 30, 23, 25, 27, 88, 12, 11, 47, 11, 6, 0)
s = 113: (0, 35, 17, 21, 14, 50, 10, 5, 41, 11, 8, 0)
s = 114: (0, 23, 16, 18, 10, 74, 14, 9, 29, 12, 8, 0)
s = 115: (0, 26, 13, 33, 13, 66, 9, 11, 31, 9, 9, 0)
s = 116: (0, 20, 26, 18, 14, 79, 10, 7, 45, 12, 13, 0)
s = 117: (0, 28, 10, 20, 12, 41, 11, 11, 32, 12, 7, 0)
s = 118: (0, 18, 16, 20, 13, 78, 11, 7, 55, 13, 6, 0)
s = 119: (0, 39, 12, 22, 14, 44, 12, 7, 38, 12, 12, 0)
s = 120: (0, 36, 16, 27, 8, 104, 9, 13, 38, 12, 9, 0)
s = 121: (0, 37, 24, 28, 22, 76, 10, 8, 41, 11, 9, 0)
s = 122: (0, 25, 10, 23, 12, 66, 8, 7, 59, 8, 10, 0)
s = 123: (0, 34, 22, 25, 14, 41, 7, 9, 41, 9, 11, 0)
s = 124: (0, 37, 19, 21, 18, 60, 10, 8, 76, 12, 7, 0)
s = 125: (0, 19, 29, 17, 12, 39, 9, 13, 45, 12, 6, 0)
s = 126: (0, 25, 18, 23, 10, 53, 10, 9, 41, 9, 8, 0)
s = 127: (0, 27, 16, 27, 18, 59, 7, 9, 31, 7, 7, 0)
s = 128: (0, 27, 15, 18, 10, 66, 8, 6, 51, 15, 9, 0)
s = 129: (0, 28, 11, 37, 12, 86, 12, 6, 51, 13, 9, 0)
s = 130: (0, 25, 18, 33, 10, 54, 8, 7, 68, 14, 5, 0)
s = 131: (0, 30, 15, 30, 17, 70, 11, 6, 45, 10, 6, 0)
s = 132: (0, 20, 14, 28, 18, 47, 14, 8, 46, 12, 4, 0)
s = 133: (0, 29, 12, 13, 9, 37, 12, 9, 47, 10, 4, 0)
s = 134: (0, 41, 16, 23, 15, 60, 8, 8, 29, 7, 9, 0)
s = 135: (0, 19, 18, 24, 11, 78, 13, 5, 43, 10, 6, 0)
s = 136: (0, 26, 14, 18, 11, 54, 10, 10, 51, 11, 9, 0)
s = 137: (0, 32, 15, 17, 19, 67, 12, 7, 53, 15, 9, 0)
s = 138: (0, 20, 12, 14, 16, 58, 8, 11, 62, 10, 7, 0)
s = 139: (0, 25, 13, 24, 14, 53, 9, 7, 42, 16, 8, 0)
s = 140: (0, 24, 15, 28, 13, 92, 10, 7, 37, 11, 9, 0)
s = 141: (0, 39, 13, 28, 16, 66, 9, 11, 83, 10, 6, 0)
s = 142: (0, 30, 18, 22, 10, 47, 7, 9, 67, 9, 8, 0)
s = 143: (0, 27, 12, 17, 20, 53, 14, 10, 73, 13, 6, 0)
s = 144: (0, 20, 16, 18, 13, 51, 8, 8, 35, 11, 6, 0)
s = 145: (0, 31, 21, 19, 18, 67, 12, 9, 40, 8, 4, 0)
s = 146: (0, 25, 24, 17, 15, 41, 7, 10, 33, 11, 6, 0)
s = 147: (0, 28, 10, 21, 20, 37, 10, 9, 44, 12, 12, 0)
s = 148: (0, 32, 20, 20, 18, 72, 14, 11, 53, 7, 8, 0)
s = 149: (0, 25, 21, 24, 14, 65, 6, 8, 54, 13, 7, 0)
s = 150: (0, 21, 24, 21, 18, 60, 8, 6, 48, 11, 5, 0)
s = 151: (0, 26, 17, 24, 11, 36, 12, 10, 36, 7, 12, 0)
s = 152: (0, 27, 22, 24, 14, 40, 16, 7, 51, 10, 8, 0)
s = 153: (0, 31, 16, 22, 17, 58, 14, 5, 64, 15, 5, 0)
s = 154: (0, 26, 22, 29, 11, 38, 8, 5, 50, 9, 8, 0)
s = 155: (0, 28, 28, 36, 13, 38, 16, 10, 44, 11, 6, 0)
s = 156: (0, 20, 10, 35, 13, 52, 11, 7, 65, 9, 8, 0)
s = 157: (0, 33, 18, 36, 19, 57, 12, 6, 48, 12, 10, 0)
s = 158: (0, 20, 16, 41, 10, 53, 8, 8, 49, 12, 7, 0)
s = 159: (0, 23, 23, 22, 20, 39, 12, 8, 51, 7, 13, 0)
s = 160: (0, 33, 16, 20, 14, 50, 11, 6, 53, 10, 6, 0)
s = 161: (0, 18, 13, 25, 18, 31, 10, 8, 39, 10, 6, 0)
s = 162: (0, 22, 11, 33, 12, 41, 13, 7, 45, 8, 6, 0)
s = 163: (0, 22, 13, 15, 10, 34, 12, 7, 36, 16, 10, 0)
s = 164: (0, 22, 17, 27, 17, 71, 9, 10, 51, 9, 10, 0)
s = 165: (0, 33, 12, 23, 13, 33, 7, 7, 43, 14, 10, 0)
s = 166: (0, 17, 29, 22, 17, 75, 8, 6, 39, 11, 9, 0)
s = 167: (0, 32, 15, 31, 17, 60, 7, 5, 55, 10, 10, 0)
s = 168: (0, 20, 18, 20, 11, 67, 13, 12, 39, 11, 10, 0)
s = 169: (0, 17, 13, 37, 13, 39, 7, 8, 56, 12, 8, 0)
s = 170: (0, 30, 11, 27, 13, 70, 11, 14, 94, 8, 7, 0)
s = 171: (0, 20, 12, 22, 12, 42, 16, 7, 47, 8, 8, 0)
s = 172: (0, 26, 21, 29, 15, 82, 14, 9, 46, 11, 6, 0)
s = 173: (0, 47, 10, 21, 23, 59, 17, 11, 71, 9, 8, 0)
s = 174: (0, 23, 15, 24, 16, 57, 10, 6, 41, 11, 5, 0)
s = 175: (0, 38, 15, 23, 11, 107, 10, 8, 74, 9, 12, 0)
s = 176: (0, 23, 18, 26, 11, 38, 11, 11, 70, 10, 9, 0)
s = 177: (0, 23, 10, 18, 12, 46, 14, 9, 76, 14, 8, 0)
s = 178: (0, 35, 14, 19, 15, 71, 18, 12, 28, 8, 9, 0)
s = 179: (0, 50, 23, 19, 21, 65, 9, 16, 47, 11, 7, 0)
s = 180: (0, 20, 13, 24, 15, 51, 11, 11, 35, 8, 9, 0)
s = 181: (0, 24, 17, 33, 21, 40, 13, 6, 38, 13, 5, 0)
s = 182: (0, 34, 15, 30, 17, 75, 9, 10, 45, 11, 7, 0)
s = 183: (0, 39, 12, 17, 20, 56, 6, 6, 54, 10, 5, 0)
s = 184: (0, 38, 15, 15, 12, 88, 12, 9, 39, 7, 8, 0)
s = 185: (0, 36, 15, 24, 14, 32, 10, 6, 83, 8, 8, 0)
s = 186: (0, 15, 18, 22, 16, 36, 10, 13, 34, 9, 10, 0)
s = 187: (0, 32, 16, 34, 12, 61, 16, 10, 46, 6, 5, 0)
s = 188: (0, 23, 18, 24, 10, 61, 9, 7, 27, 7, 7, 0)
s = 189: (0, 23, 13, 30, 23, 63, 10, 8, 53, 10, 7, 0)
s = 190: (0, 29, 18, 17, 10, 45, 9, 8, 46, 8, 7, 0)
s = 191: (0, 21, 21, 16, 15, 70, 10, 10, 43, 9, 6, 0)
s = 192: (0, 26, 22, 21, 9, 68, 9, 5, 49, 13, 7, 0)
s = 193: (0, 29, 12, 27, 12, 56, 10, 9, 50, 8, 7, 0)
s = 194: (0, 44, 19, 23, 10, 71, 7, 5, 36, 6, 6, 0)
s = 195: (0, 20, 23, 33, 17, 88, 9, 9, 31, 6, 12, 0)
s = 196: (0, 21, 18, 36, 13, 43, 13, 7, 51, 9, 6, 0)
s = 197: (0, 21, 17, 21, 12, 33, 10, 7, 69, 12, 8, 0)
s = 198: (0, 38, 26, 18, 12, 48, 9, 10, 57, 17, 5, 0)
s = 199: (0, 37, 31, 25, 12, 74, 8, 9, 61, 10, 6, 0)
s = 200: (0, 23, 15, 26, 25, 34, 7, 9, 45, 8, 8, 0)
************************************************************************
ES/LS-VALUES:
jobnr.   ES(i)    LS(i)
------------------------------------------------------------------------
  0        0        0
  1        0       51
  2        0       69
  3        0       65
  4        5       75
  5        5       57
  6       20       73
  7       24       77
  8        7       73
  9       26       79
 10        3       81
 11       29       83
************************************************************************
BIG-M-VALUES:
M1 = 85, M2 = 275
************************************************************************
